199
0 54 18 158 185 138 106 168 15 8 
175 136 159 67 114 186 34 39 20 181 
174 89 197 123 83 92 55 130 53 179 
188 171 30 11 169 78 131 45 93 47 
119 51 137 27 167 21 33 107 160 140 
128 155 124 29 194 7 85 141 163 135 
104 150 164 62 72 5 65 177 165 156 
74 56 4 132 22 82 28 102 191 50 
193 17 13 14 127 108 68 57 133 84 
190 146 73 195 43 3 126 32 97 172 
143 116 95 149 180 80 115 101 198 10 
98 64 77 66 42 117 183 184 60 125 
173 25 192 41 58 59 166 170 121 187 
63 152 139 182 31 134 87 71 69 147 
176 196 70 75 23 103 61 100 36 142 
148 76 40 120 162 2 9 52 44 113 
151 38 49 111 91 189 118 16 96 48 
129 46 109 35 178 90 145 161 37 94 
88 86 154 144 153 26 19 12 112 24 
1 6 81 122 157 79 99 110 105 
